&CONTROL
  calculation='vc-relax'
  disk_io='low'
  etot_conv_thr=1.0000000000d-06
  forc_conv_thr=1.0000000000d-03
  max_seconds=86000
  nstep=50000
  outdir='./out/'
  prefix='aiida'
  pseudo_dir='./pseudo/'
  restart_mode='restart'
  tprnfor=.true.
  tstress=.true.
  verbosity='low'
  wf_collect=.true.
/
&SYSTEM
  degauss=2.0000000000d-03
  ecutrho=6.4000000000d+02
  ecutwfc=8.0000000000d+01
  hubbard_u(1)=5.0
  hubbard_u(3)=5.0
  ibrav=0
  input_dft='PBESOL'
  lda_plus_u=.true.
  nat=64
  nosym=.false.
  nspin=2
  ntyp=4
  occupations='smearing'
  smearing='gaussian'
  starting_magnetization(1)=1.0000000000d-01
  starting_magnetization(3)=2.0000000000d-01
  starting_ns_eigenvalue(1,1,3)=1.0000000000d+00
  starting_ns_eigenvalue(1,2,3)=1.0000000000d+00
  starting_ns_eigenvalue(2,1,3)=1.0000000000d+00
  starting_ns_eigenvalue(2,2,3)=1.0000000000d+00
  starting_ns_eigenvalue(3,1,3)=1.0000000000d+00
  starting_ns_eigenvalue(3,2,3)=1.0000000000d+00
  starting_ns_eigenvalue(4,1,3)=1.0000000000d+00
  starting_ns_eigenvalue(4,2,3)=0.0000000000d+00
  starting_ns_eigenvalue(5,1,3)=0.0000000000d+00
  starting_ns_eigenvalue(5,2,3)=0.0000000000d+00
  starting_ns_eigenvalue(1,1,1)=1.0000000000d+00
  starting_ns_eigenvalue(1,2,1)=1.0000000000d+00
  starting_ns_eigenvalue(2,1,1)=1.0000000000d+00
  starting_ns_eigenvalue(2,2,1)=1.0000000000d+00
  starting_ns_eigenvalue(3,1,1)=1.0000000000d+00
  starting_ns_eigenvalue(3,2,1)=0.0000000000d+00
  starting_ns_eigenvalue(4,1,1)=0.0000000000d+00
  starting_ns_eigenvalue(4,2,1)=0.0000000000d+00
  starting_ns_eigenvalue(5,1,1)=0.0000000000d+00
  starting_ns_eigenvalue(5,2,1)=0.0000000000d+00
  tot_magnetization=1.6000000000d+01
/
&ELECTRONS
  conv_thr=1.0000000000d-06
  diagonalization='david'
  electron_maxstep=1000
  mixing_beta=3.0000000000d-01
  mixing_mode='plain'
  mixing_ndim=10
/
&IONS
/
&CELL
/
ATOMIC_SPECIES
Fe 58.6934 Fe.uspp.pbe.VDB.UPF
H 1.008 H.pbe-van_bm.UPF
Ni 58.6934 Ni.pbe.uspp.VDB.UPF
O 15.999 O.uspp.pbe.UPF
K_POINTS automatic4 2 2 0 0 0
CELL_PARAMETERS (angstrom)
5.877436562019667 0.008222538358680812 0.03507258197356262
-5.717378783602509 10.202430079672157 -0.14752517014861793
-3.281922976981828 1.9411593253177808 8.851167397184208
ATOMIC_POSITIONS (angstrom)Ni -1.4573389736045228 11.185303886329072 4.244252497892749
Ni 2.829258213837367 3.526736353035142 4.39270787528221
O -0.008460994418420784 1.6359073056249538 0.8168288999189124
O -1.484387246615333 4.359265230252497 0.9436613000406224
O -0.030004589012220403 1.731039100397636 3.3197091131452536
O -1.5114488902497996 4.411613305371922 3.454666787759797
H 0.014441316296090594 1.6612560712390338 2.2749832908154985
H -1.525635201644712 4.421038985378894 1.9888855003268504
Ni -4.394966920561257 11.174461748647463 4.232014549040432
Ni -0.09854031901207211 3.517725472604806 4.373804425445861
O 3.040038574235962 1.632375496159483 0.8694348550028413
O 1.4318132017775094 4.296911075323895 0.9404698344008233
O 2.9131033527873407 1.802142731233984 3.359774022426994
O 1.3131757764993293 4.411367518402364 3.4500704864383223
H 3.003551694622554 1.7247894210633552 2.3097011390719326
H 1.3366496640915304 4.338117390221102 1.9879719906107438
Fe 1.3981171583455143 6.071387180782809 4.34962120092904
Ni -0.03046532785459923 8.583316262427594 4.301364233088864
O -2.825913542648311 6.801366809277202 0.7363079130735128
O -4.2172100931975605 9.493362506696661 0.8148082445244278
O -3.014981461516465 6.771124391467593 3.2733199882440154
O -4.363354235166552 9.504769174263982 3.30520744398321
H -2.958148204522068 6.731757032153724 2.2339392911701377
H -4.26241327373949 9.546443363415374 2.232828827828086
Ni -1.5434053108872645 6.059669873256148 4.334379979359015
Ni -2.9742728839990784 8.588059120308523 4.278704070894055
O 0.14933210381878545 6.802202066028433 0.7665638285060645
O -1.444988592314748 9.329657968066927 0.8444107697838255
O 0.01925616455398405 6.82901874026352 3.2923008438951453
O -1.5641577600991465 9.504646719147813 3.324865661179867
H 0.10629160566797197 6.791275408353115 2.2553754019224432
H -1.5775879725679653 9.463663509020256 2.2466510690281267
Ni -3.110930767026398 12.116585214586957 8.69367912883421
Ni 1.1702545965649567 4.4949149877427095 8.811447096174843
O -1.5154171596653843 2.618651791587254 5.29309827546217
O -3.105440089396942 5.256338793431523 5.362445401970505
O -1.6684231273110584 2.7383210600937122 7.764950706273514
O -3.3005387193169673 5.390403960282029 7.854972380875919
H -1.5522346470696289 2.6719119871565846 6.701456963520723
H -3.213224142018288 5.313607691682267 6.408789286798944
Ni -6.045988715615777 12.107204955319409 8.666819067189689
Ni -1.760794709730431 4.492742256342806 8.775745485335046
O 1.302713593086058 2.6138035444332264 5.320619925027424
O -0.06217639225170805 5.347246467046432 5.377323778312203
O 1.1339353409102686 2.6195334506686603 7.808469611138937
O -0.23040085009271652 5.38743628415992 7.880922491047674
H 1.1686707056506103 2.5545366306078514 6.735963950393243
H -0.10854659440516436 5.4112181437725155 6.420350004214307
Ni -0.24768383563374155 7.065991680258983 8.75810375324366
Ni -1.6785789762723007 9.59952047286969 8.715982599338155
O -4.366141302688346 7.7046061198541524 5.227435264532915
O -5.9914458261625665 10.355880880344806 5.24344231544415
O -4.535105910179139 7.922061706429879 7.699361646520306
O -6.096834162476106 10.456819100544202 7.778952889967974
H -4.4174919668916885 7.83885821195504 6.6243305245772985
H -6.073094186852252 10.440125426285892 6.272891967057994
Ni -3.1995510942788825 7.070070972150285 8.740562415348357
Fe -4.626817982608936 9.610218028225745 8.708172126719921
O -1.5926195445421045 7.6986621457778455 5.22030318830713
O -3.041002417064911 10.407682136119654 5.292684357282414
O -1.616654952379107 7.804503673894257 7.689800145788222
O -3.1321756879014018 10.459146466003858 7.831207187081628
H -1.5949197484942492 7.720148737679463 6.61113443794227
H -3.106976014902431 10.47081960859562 6.3281908125254045
