&CONTROL
  calculation = 'vc-relax'
  disk_io = 'low'
  etot_conv_thr =   1.0000000000d-06
  forc_conv_thr =   1.0000000000d-03
  max_seconds = 86000
  nstep = 50000
  outdir = './out/'
  prefix = 'aiida'
  pseudo_dir = './pseudo/'
  restart_mode = 'restart'
  tprnfor = .true.
  tstress = .true.
  verbosity = 'low'
  wf_collect = .true.
/
&SYSTEM
  degauss =   2.0000000000d-03
  ecutrho =   6.4000000000d+02
  ecutwfc =   8.0000000000d+01
  hubbard_u(1) = 5.0 
  hubbard_u(3) = 5.0 
  ibrav = 0
  input_dft = 'PBESOL'
  lda_plus_u = .true.
  nat = 64
  nosym = .false.
  nspin = 2
  ntyp = 4
  occupations = 'smearing'
  smearing = 'gaussian'
  starting_magnetization(1) =   1.0000000000d-01
  starting_magnetization(3) =   2.0000000000d-01
  starting_ns_eigenvalue(1,1,3) =   1.0000000000d+00
  starting_ns_eigenvalue(1,2,3) =   1.0000000000d+00
  starting_ns_eigenvalue(2,1,3) =   1.0000000000d+00
  starting_ns_eigenvalue(2,2,3) =   1.0000000000d+00
  starting_ns_eigenvalue(3,1,3) =   1.0000000000d+00
  starting_ns_eigenvalue(3,2,3) =   1.0000000000d+00
  starting_ns_eigenvalue(4,1,3) =   1.0000000000d+00
  starting_ns_eigenvalue(4,2,3) =   0.0000000000d+00
  starting_ns_eigenvalue(5,1,3) =   0.0000000000d+00
  starting_ns_eigenvalue(5,2,3) =   0.0000000000d+00
  starting_ns_eigenvalue(1,1,1) =   1.0000000000d+00
  starting_ns_eigenvalue(1,2,1) =   1.0000000000d+00
  starting_ns_eigenvalue(2,1,1) =   1.0000000000d+00
  starting_ns_eigenvalue(2,2,1) =   1.0000000000d+00
  starting_ns_eigenvalue(3,1,1) =   1.0000000000d+00
  starting_ns_eigenvalue(3,2,1) =   0.0000000000d+00
  starting_ns_eigenvalue(4,1,1) =   0.0000000000d+00
  starting_ns_eigenvalue(4,2,1) =   0.0000000000d+00
  starting_ns_eigenvalue(5,1,1) =   0.0000000000d+00
  starting_ns_eigenvalue(5,2,1) =   0.0000000000d+00
  tot_magnetization =   1.6000000000d+01
/
&ELECTRONS
  conv_thr =   1.0000000000d-06
  diagonalization = 'david'
  electron_maxstep = 1000
  mixing_beta =   3.0000000000d-01
  mixing_mode = 'plain'
  mixing_ndim = 10
/
&IONS
/
&CELL
/
ATOMIC_SPECIES
Fe     58.6934 Fe.uspp.pbe.VDB.UPF
H      1.008 H.pbe-van_bm.UPF
Ni     58.6934 Ni.pbe.uspp.VDB.UPF
O      15.999 O.uspp.pbe.UPF
K_POINTS automatic
4 2 2 0 0 0
CELL_PARAMETERS (angstrom)
   5.802904236  -0.034615151   0.122609167
  -5.721251848  10.229893114  -0.206668420
  -3.121992180   1.984914743   8.695192025
ATOMIC_POSITIONS (angstrom)
Ni           -1.4619560009       11.1971707442        4.1866824834
Ni            2.8245857487        3.5319851987        4.3955951736
O             0.0035745412        1.6468878272        0.8245332181
O            -1.4387057736        4.3437247839        0.9126534380
O            -0.0576401442        1.7713836733        3.2913986562
O            -1.5036404200        4.4225165192        3.4064449419
H            -0.0314506707        1.7028898813        2.2147845777
H            -1.4693588209        4.4036530136        1.9844310818
Ni           -4.3636785069       11.1989717706        4.1280475499
Ni           -0.0783293891        3.5462978993        4.3344723288
O             2.9165993717        1.6278574617        0.8881168950
O             1.4541120824        4.2780264629        0.9895192142
O             2.8487404136        1.7573297640        3.3548388912
O             1.3885681604        4.4202378433        3.4732816880
H             2.8822913521        1.6875783536        2.2779251814
H             1.4212192916        4.3378012332        2.0451414237
Fe            1.3952393212        6.0636891077        4.3579320608
Ni           -0.0204208293        8.5938714765        4.2619508948
O            -2.8166103154        6.8257405170        0.7570653612
O            -4.2823276583        9.4229812175        0.7840982739
O            -2.9803683871        6.8317924988        3.2226962532
O            -4.3574026309        9.4783858314        3.2362576265
H            -2.9255923597        6.8038464847        2.1411662762
H            -4.3160189756        9.4577793541        1.9007314181
Ni           -1.5072304851        6.0842722726        4.2878613387
Ni           -2.9445184445        8.6139519484        4.1979930424
O             0.0291176784        6.8043916670        0.8200662377
O            -1.3727269416        9.3287956718        0.7968568551
O             0.0326680118        6.8170849804        3.2861113928
O            -1.4610870411        9.4803456021        3.2658276860
H             0.0478304564        6.7902613494        2.2006291679
H            -1.4255232708        9.4312770048        2.1881367692
Ni           -3.0361170321       12.1415703307        8.5418365367
Ni            1.2621272743        4.4798034051        8.7115875687
O            -1.5491797811        2.6782625547        5.2079886217
O            -3.0403138758        5.3578847464        5.2897889589
O            -1.6345585313        2.7076846619        7.6533189569
O            -3.0715006741        5.3983200686        7.7278486883
H            -1.5985872627        2.6709971290        6.5452179877
H            -3.0603423156        5.3944844604        6.4013935454
Ni           -5.9128439971       12.1604555486        8.4808666173
Ni           -1.6389639326        4.5018762995        8.6566239913
O             1.3499719200        2.6579465737        5.2641240269
O            -0.0387712541        5.3398462858        5.3498481869
O             1.2752669605        2.6904054832        7.6962453110
O            -0.1631923280        5.3729563215        7.7888193150
H             1.3093694876        2.6524425875        6.5678092453
H            -0.0909852385        5.3753651460        6.4558942794
Ni           -0.1642448431        7.0682906165        8.6906385695
Ni           -1.5890202160        9.6208071805        8.6216148921
O            -4.3988441371        7.7517179233        5.1188028694
O            -5.8664854010       10.4093504199        5.1067753159
O            -4.4705184986        7.9770128849        7.5846116633
O            -5.8884233618       10.4814266213        7.5961043797
H            -4.4336276774        7.9010416026        6.5088331955
H            -5.8876384126       10.4620710556        6.1685141795
Ni           -3.0724983602        7.0897084295        8.6297853895
Fe           -4.4901175412        9.6568560716        8.5610983757
O            -1.5112140793        7.7708847481        5.1459904592
O            -2.9367069885       10.3974889512        5.1710759562
O            -1.5757608549        7.8438797802        7.6387370989
O            -3.0416095379       10.4613959107        7.6574518227
H            -1.5462187850        7.7921301256        6.5587379619
H            -2.9731037964       10.4475725528        6.2311504438
